% Logging successfully configured
%%%mzn-stat: initTime=0.004737521
%%%mzn-stat: objective=759
%%%mzn-stat: nodes=264
%%%mzn-stat: restarts=0
%%%mzn-stat: peakDepth=182
%%%mzn-stat: solveTime=0.02614252
%%%mzn-stat: variables=475
%%%mzn-stat: propagators=296
%%%mzn-stat: failures=63
%%%mzn-stat: propagations=3352
%%%mzn-stat: nogoods=63
%%%mzn-stat: numAtomicConstraintsPropagated=0
%%%mzn-stat: allDifferentNumber1PropagationsTotal=327
%%%mzn-stat: allDifferentNumber1PropagationsThatFoundConflict=1
%%%mzn-stat: allDifferentNumber1PropagationsThatPruned=209
%%%mzn-stat: allDifferentNumber1TotalValuesPruned=769
%%%mzn-stat: allDifferentNumber1TotalHallSetSizeConflict=20
%%%mzn-stat: allDifferentNumber1NumberOfConflicts=1
%%%mzn-stat: allDifferentNumber1MaxHallSetSizeConflict=20
%%%mzn-stat: allDifferentNumber1TotalPruningHallSetSize=3263
%%%mzn-stat: allDifferentNumber1NumberOfPruningExplanations=769
%%%mzn-stat: allDifferentNumber1MaxPruningHallSetSize=47
%%%mzn-stat: allDifferentNumber1TotalFixedEdgesAtConflict=29
%%%mzn-stat: allDifferentNumber1TotalVarsInvolvedInPruning=653
%%%mzn-stat: allDifferentNumber1MaxValuesPrunedFromSingleVar=4
%%%mzn-stat: allDifferentNumber1TotalSccSizeAtPruning=2338
%%%mzn-stat: allDifferentNumber1NumberOfSccPruningCalls=209
%%%mzn-stat: circuitNumber2PropagationsThatFoundConflict=62
%%%mzn-stat: circuitNumber2TotalFixedEdgesAtConflict=2495
%%%mzn-stat: circuitNumber2NumberOfConflicts=62
%%%mzn-stat: circuitNumber2PropagationsThatPruned=79
%%%mzn-stat: circuitNumber2PropagationsTotal=224
%%%mzn-stat: AverageConflictSize=15.666666666666666
%%%mzn-stat: NumUnitNogoodsLearned=0
%%%mzn-stat: AverageLearnedNogoodLength=18.095238095238095
%%%mzn-stat: AverageBacktrackAmount=0
%%%mzn-stat: AverageLbd=9.095238095238095
%%%mzn-stat: 2AutonomousSearchNumBackupCalled=166
%%%mzn-stat: 2AutonomousSearchNumPredicatesRemoved=0
%%%mzn-stat: 2AutonomousSearchNumCalls=167
%%%mzn-stat: 2AutonomousSearchNumPredicatesAdded=1596
%%%mzn-stat: 2AutonomousSearchAverageSizeOfHeap=9.55688622754491
%%%mzn-stat: 2AutonomousSearchNumAssignedPredicatesEncountered=1596
%%%mzn-stat-end
maxleg = 759;
succ = array1d(1..50,[26, 15, 9, 10, 50, 13, 8, 35, 16, 23, 17, 18, 41, 29, 40, 47, 12, 4, 42, 46, 25, 38, 32, 30, 22, 36, 44, 19, 49, 45, 7, 1, 14, 39, 21, 31, 43, 27, 3, 5, 33, 24, 28, 48, 34, 2, 11, 6, 20, 37]);
% time elapsed: 0.47 s
----------
%%%mzn-stat: initTime=0.004737521
%%%mzn-stat: objective=684
%%%mzn-stat: nodes=471
%%%mzn-stat: restarts=0
%%%mzn-stat: peakDepth=182
%%%mzn-stat: solveTime=0.038057336
%%%mzn-stat: variables=475
%%%mzn-stat: propagators=296
%%%mzn-stat: failures=88
%%%mzn-stat: propagations=4942
%%%mzn-stat: nogoods=88
%%%mzn-stat: numAtomicConstraintsPropagated=0
%%%mzn-stat: allDifferentNumber1PropagationsTotal=495
%%%mzn-stat: allDifferentNumber1PropagationsThatFoundConflict=7
%%%mzn-stat: allDifferentNumber1PropagationsThatPruned=311
%%%mzn-stat: allDifferentNumber1TotalValuesPruned=1175
%%%mzn-stat: allDifferentNumber1TotalHallSetSizeConflict=68
%%%mzn-stat: allDifferentNumber1NumberOfConflicts=7
%%%mzn-stat: allDifferentNumber1MaxHallSetSizeConflict=20
%%%mzn-stat: allDifferentNumber1TotalPruningHallSetSize=5184
%%%mzn-stat: allDifferentNumber1NumberOfPruningExplanations=1175
%%%mzn-stat: allDifferentNumber1MaxPruningHallSetSize=48
%%%mzn-stat: allDifferentNumber1TotalFixedEdgesAtConflict=251
%%%mzn-stat: allDifferentNumber1TotalVarsInvolvedInPruning=979
%%%mzn-stat: allDifferentNumber1MaxValuesPrunedFromSingleVar=4
%%%mzn-stat: allDifferentNumber1TotalSccSizeAtPruning=3396
%%%mzn-stat: allDifferentNumber1NumberOfSccPruningCalls=311
%%%mzn-stat: circuitNumber2PropagationsThatFoundConflict=81
%%%mzn-stat: circuitNumber2TotalFixedEdgesAtConflict=3288
%%%mzn-stat: circuitNumber2NumberOfConflicts=81
%%%mzn-stat: circuitNumber2PropagationsThatPruned=110
%%%mzn-stat: circuitNumber2PropagationsTotal=326
%%%mzn-stat: AverageConflictSize=15.704545454545455
%%%mzn-stat: NumUnitNogoodsLearned=0
%%%mzn-stat: AverageLearnedNogoodLength=17.011363636363637
%%%mzn-stat: AverageBacktrackAmount=0
%%%mzn-stat: AverageLbd=8.477272727272727
%%%mzn-stat: 2AutonomousSearchNumBackupCalled=320
%%%mzn-stat: 2AutonomousSearchNumPredicatesRemoved=0
%%%mzn-stat: 2AutonomousSearchNumCalls=322
%%%mzn-stat: 2AutonomousSearchNumPredicatesAdded=2771
%%%mzn-stat: 2AutonomousSearchAverageSizeOfHeap=10.403726708074535
%%%mzn-stat: 2AutonomousSearchNumAssignedPredicatesEncountered=3350
%%%mzn-stat-end
maxleg = 684;
succ = array1d(1..50,[26, 15, 9, 10, 50, 13, 8, 35, 16, 23, 17, 33, 31, 29, 40, 47, 12, 4, 42, 46, 25, 36, 32, 30, 22, 38, 6, 19, 49, 45, 7, 1, 41, 39, 21, 48, 43, 27, 3, 5, 18, 24, 28, 14, 34, 2, 11, 44, 20, 37]);
% time elapsed: 0.47 s
----------
==========
% time elapsed: 0.53 s
%%%mzn-stat: initTime=0.004737521
%%%mzn-stat: objective=684
%%%mzn-stat: nodes=654
%%%mzn-stat: restarts=0
%%%mzn-stat: peakDepth=182
%%%mzn-stat: solveTime=0.101659553
%%%mzn-stat: variables=475
%%%mzn-stat: propagators=296
%%%mzn-stat: failures=238
%%%mzn-stat: propagations=10706
%%%mzn-stat: nogoods=238
%%%mzn-stat: numAtomicConstraintsPropagated=0
%%%mzn-stat: allDifferentNumber1PropagationsTotal=1268
%%%mzn-stat: allDifferentNumber1PropagationsThatFoundConflict=69
%%%mzn-stat: allDifferentNumber1PropagationsThatPruned=837
%%%mzn-stat: allDifferentNumber1TotalValuesPruned=3175
%%%mzn-stat: allDifferentNumber1TotalHallSetSizeConflict=1471
%%%mzn-stat: allDifferentNumber1NumberOfConflicts=69
%%%mzn-stat: allDifferentNumber1MaxHallSetSizeConflict=43
%%%mzn-stat: allDifferentNumber1TotalPruningHallSetSize=29311
%%%mzn-stat: allDifferentNumber1NumberOfPruningExplanations=3175
%%%mzn-stat: allDifferentNumber1MaxPruningHallSetSize=48
%%%mzn-stat: allDifferentNumber1TotalFixedEdgesAtConflict=712
%%%mzn-stat: allDifferentNumber1TotalVarsInvolvedInPruning=2688
%%%mzn-stat: allDifferentNumber1MaxValuesPrunedFromSingleVar=4
%%%mzn-stat: allDifferentNumber1TotalSccSizeAtPruning=15288
%%%mzn-stat: allDifferentNumber1NumberOfSccPruningCalls=837
%%%mzn-stat: circuitNumber2PropagationsThatFoundConflict=168
%%%mzn-stat: circuitNumber2TotalFixedEdgesAtConflict=4563
%%%mzn-stat: circuitNumber2NumberOfConflicts=168
%%%mzn-stat: circuitNumber2PropagationsThatPruned=170
%%%mzn-stat: circuitNumber2PropagationsTotal=773
%%%mzn-stat: AverageConflictSize=10.865546218487395
%%%mzn-stat: NumUnitNogoodsLearned=1
%%%mzn-stat: AverageLearnedNogoodLength=16.399159663865547
%%%mzn-stat: AverageBacktrackAmount=0
%%%mzn-stat: AverageLbd=5.504201680672269
%%%mzn-stat: 2AutonomousSearchNumBackupCalled=320
%%%mzn-stat: 2AutonomousSearchNumPredicatesRemoved=0
%%%mzn-stat: 2AutonomousSearchNumCalls=322
%%%mzn-stat: 2AutonomousSearchNumPredicatesAdded=4008
%%%mzn-stat: 2AutonomousSearchAverageSizeOfHeap=10.403726708074535
%%%mzn-stat: 2AutonomousSearchNumAssignedPredicatesEncountered=3350
%%%mzn-stat-end
